************************************************************************
file with basedata            : md381_.bas
initial value random generator: 25739
************************************************************************
projects                      :  1
jobs (incl. supersource/sink ):  22
horizon                       :  162
RESOURCES
  - renewable                 :  2   R
  - nonrenewable              :  2   N
  - doubly constrained        :  0   D
************************************************************************
PROJECT INFORMATION:
pronr.  #jobs rel.date duedate tardcost  MPM-Time
    1     20      0       29       10       29
************************************************************************
PRECEDENCE RELATIONS:
jobnr.    #modes  #successors   successors
   1        1          3           2   3   4
   2        3          3           5  11  16
   3        3          3           5   7  10
   4        3          1           8
   5        3          2           6  17
   6        3          3          14  18  19
   7        3          1           9
   8        3          2          11  13
   9        3          3          12  14  16
  10        3          2          11  12
  11        3          2          14  19
  12        3          2          17  21
  13        3          2          16  18
  14        3          1          15
  15        3          2          20  21
  16        3          1          17
  17        3          2          19  20
  18        3          2          20  21
  19        3          1          22
  20        3          1          22
  21        3          1          22
  22        1          0        
************************************************************************
REQUESTS/DURATIONS:
jobnr. mode duration  R 1  R 2  N 1  N 2
------------------------------------------------------------------------
  1      1     0       0    0    0    0
  2      1     1       9    6    6    8
         2     3       9    5    4    8
         3     5       9    3    4    7
  3      1     3       5    4    4    7
         2     3       5    5    4    6
         3     9       5    4    4    4
  4      1     2      10    4   10    9
         2     8       9    4    9    7
         3    10       9    3    9    7
  5      1     5       8    8    5   10
         2     7       7    8    5    6
         3     9       3    6    3    2
  6      1     5       9   10    6    4
         2     6       8    9    6    4
         3     7       6    8    5    4
  7      1     3       7    7    3    8
         2     5       6    5    3    8
         3    10       4    2    2    8
  8      1     3       7    7    4    7
         2     3       8    7    3    7
         3     7       5    7    2    3
  9      1     3       7    7    7    6
         2     5       3    4    5    6
         3     5       2    2    7    6
 10      1     5       8    7    2    8
         2     6       7    6    2    8
         3     9       5    4    1    7
 11      1     5       9    8    7    5
         2     7       9    8    5    5
         3     9       9    7    5    5
 12      1     3       7    9    7    3
         2     5       7    9    6    2
         3     8       6    9    4    2
 13      1     1       4    5    7    4
         2     4       2    5    7    4
         3     9       1    4    3    3
 14      1     5       7   10   10    9
         2     8       5    9    6    8
         3     8       4    9    8    7
 15      1     9       9    5    9    8
         2     9       8    8    8    6
         3    10       7    2    6    5
 16      1     2       7    7    5    7
         2     5       7    6    5    7
         3     6       7    4    5    7
 17      1     3       6    9    3    4
         2     4       4    8    3    4
         3     6       4    8    2    1
 18      1     5       3    9   10    3
         2     8       2    5    7    2
         3     9       1    5    7    2
 19      1     2       7    3    4    8
         2     4       5    3    4    5
         3     9       3    3    4    5
 20      1     2       6    4   10    7
         2     3       6    3    8    6
         3     8       6    1    8    5
 21      1     2       3    4    7    7
         2     9       2    3    4    5
         3     9       1    3    7    5
 22      1     0       0    0    0    0
************************************************************************
RESOURCEAVAILABILITIES:
  R 1  R 2  N 1  N 2
   15   15  126  132
************************************************************************
MAXIMAL LAGS:
from  to  type  delay
    1   22   ES      0
    1    2   ES      0
    2   22   ES      0
    1    3   ES      0
    3   22   ES      0
    1    4   ES      0
    4   22   ES      0
    1    5   ES      0
    5   22   ES      0
    1    6   ES      0
    6   22   ES      0
    1    7   ES      0
    7   22   ES      0
    1    8   ES      0
    8   22   ES      0
    1    9   ES      0
    9   22   ES      0
    1   10   ES      0
   10   22   ES      0
    1   11   ES      0
   11   22   ES      0
    1   12   ES      0
   12   22   ES      0
    1   13   ES      0
   13   22   ES      0
    1   14   ES      0
   14   22   ES      0
    1   15   ES      0
   15   22   ES      0
    1   16   ES      0
   16   22   ES      0
    1   17   ES      0
   17   22   ES      0
    1   18   ES      0
   18   22   ES      0
    1   19   ES      0
   19   22   ES      0
    1   20   ES      0
   20   22   ES      0
    1   21   ES      0
   21   22   ES      0
    1   22   ES      0
    2    5   SS      1
    2    5   SE      8
    2    5   ES     -8
    2    5   EE     -8
    2   11   SS     10
    2   11   SE     -7
    2   11   ES      2
    2   11   EE     10
    2   16   SS      2
    2   16   SE     -8
    2   16   ES      1
    2   16   EE     -9
    3    5   SS    -12
    3    5   SE     -2
    3    5   ES     -4
    3    5   EE     12
    3    7   SS      8
    3    7   SE    -11
    3    7   ES     -7
    3    7   EE     11
    3   10   SS      0
    3   10   SE    -12
    3   10   ES     11
    3   10   EE     -7
    4    8   SS      4
    4    8   SE      8
    4    8   ES     -3
    4    8   EE      1
    5    6   SS     -1
    5    6   SE     11
    5    6   ES     -2
    5    6   EE      6
    5   17   SS     -8
    5   17   SE    -10
    5   17   ES     10
    5   17   EE      4
    6   14   SS      6
    6   14   SE     -2
   14    6   SE      0
    6   14   ES      0
    6   14   EE      5
    6   18   SS      4
    6   18   SE      0
    6   18   ES     -4
    6   18   EE      7
    6   19   SS      6
    6   19   SE     -6
    6   19   ES     -6
    6   19   EE      9
    7    9   SS      6
    7    9   SE      2
    7    9   ES     -4
    7    9   EE     -1
    8   11   SS     -6
    8   11   SE      7
    8   11   ES    -10
    8   11   EE      5
    8   13   SS    -11
    8   13   SE     -7
    8   13   ES     -5
    8   13   EE      5
    9   12   SS     -3
    9   12   SE      5
    9   12   ES      2
    9   12   EE      1
    9   14   SS    -10
    9   14   SE      8
    9   14   ES     -3
    9   14   EE     -3
    9   16   SS     -4
    9   16   SE     -5
    9   16   ES     11
    9   16   EE     10
   10   11   SS     -5
   10   11   SE      9
   10   11   ES      9
   10   11   EE     12
   10   12   SS      2
   10   12   SE     -5
   10   12   ES      0
   10   12   EE     12
   11   14   SS      8
   11   14   SE      8
   11   14   ES    -11
   11   14   EE      7
   11   19   SS    -11
   11   19   SE      4
   11   19   ES     -2
   11   19   EE      2
   12   17   SS     -2
   12   17   SE     -5
   12   17   ES     12
   12   17   EE     11
   12   21   SS      2
   12   21   SE      7
   12   21   ES     -3
   12   21   EE      2
   13   16   SS      0
   13   16   SE     12
   13   16   ES     -6
   13   16   EE     -9
   13   18   SS      4
   13   18   SE     10
   13   18   ES     -6
   13   18   EE      8
   14   15   SS     -4
   14   15   SE     -7
   14   15   ES     10
   14   15   EE      6
   15   20   SS    -12
   15   20   SE    -12
   15   20   ES     -7
   15   20   EE     -3
   15   21   SS      6
   15   21   SE     -7
   15   21   ES      8
   15   21   EE      3
   16   17   SS      5
   16   17   SE     -2
   16   17   ES     -7
   16   17   EE     -6
   17   19   SS     -3
   17   19   SE      0
   17   19   ES     11
   17   19   EE      9
   17   20   SS    -10
   17   20   SE     -2
   17   20   ES    -10
   17   20   EE     -7
   18   20   SS     -9
   18   20   SE     12
   18   20   ES      1
   18   20   EE      3
   18   21   SS      0
   18   21   SE     11
   18   21   ES    -12
   18   21   EE      4
************************************************************************
